&CONTROL
    calculation = "nscf"
    max_seconds =  8.64000e+04
    pseudo_dir  = "C:\Users\agnaa\.burai\.pseudopot"
/

&SYSTEM
    a           =  4.19400e+00
    degauss     =  1.00000e-02
    ecutrho     =  5.23088e+02
    ecutwfc     =  5.81209e+01
    ibrav       = 1
    nat         = 8
    nbnd        = 48
    ntyp        = 2
    occupations = "smearing"
    smearing    = "gaussian"
/

&ELECTRONS
    conv_thr         =  1.00000e-06
    electron_maxstep = 200
    mixing_beta      =  7.00000e-01
    startingpot      = "atomic"
    startingwfc      = "atomic+random"
/

&DOS
    degauss =  1.00000e-02
    deltae  =  1.00000e-02
    emax    =  5.00000e+01
    emin    = -5.00000e+01
    ngauss  = 0
/

&PROJWFC
    degauss =  1.00000e-02
    deltae  =  1.00000e-02
    emax    =  5.00000e+01
    emin    = -5.00000e+01
    ngauss  = 0
/

K_POINTS {automatic}
 6  6  6  0 0 0

ATOMIC_SPECIES
Mg2+   24.30500  Mg.pbe-spnl-rrkjus_psl.1.0.0.UPF
O2-    15.99940  O.pbe-rrkjus.UPF

ATOMIC_POSITIONS {angstrom}
Mg2+    0.000000   0.000000   0.000000
Mg2+    0.000000   2.097001   2.097001
Mg2+    2.097001   0.000000   2.097001
Mg2+    2.097001   2.097001   0.000000
O2-     0.000000   0.000000   2.097001
O2-     0.000000   2.097001   0.000000
O2-     2.097001   0.000000   0.000000
O2-     2.097001   2.097001   2.097001

