&CONTROL
    calculation = "scf"
    max_seconds =  8.64000e+04
    pseudo_dir  = "C:\Users\agnaa\.burai\.pseudopot"
/

&SYSTEM
    a           =  3.23735e+00
    c           =  5.22206e+00
    degauss     =  1.00000e-02
    ecutrho     =  2.25000e+02
    ecutwfc     =  2.50000e+01
    ibrav       = 4
    nat         = 4
    ntyp        = 2
    occupations = "smearing"
    smearing    = "gaussian"
/

&ELECTRONS
    conv_thr         =  1.00000e-06
    electron_maxstep = 200
    mixing_beta      =  7.00000e-01
    startingpot      = "atomic"
    startingwfc      = "atomic+random"
/

K_POINTS {automatic}
 4  4  2  0 0 0

ATOMIC_SPECIES
Zn2+   65.39000  Zn.pbe-van.UPF
O2-    15.99940  O.pbe-rrkjus.UPF

ATOMIC_POSITIONS {angstrom}
Zn2+    1.618676   0.934543   2.614121
Zn2+   -0.000000   1.869085   0.003090
O2-     1.618676   0.934543   4.593943
O2-    -0.000000   1.869085   1.982912

