&CONTROL
    calculation = "nscf"
    max_seconds =  8.64000e+10
    pseudo_dir  = "C:\Users\agnaa\.burai\.pseudopot"
/

&SYSTEM
    a           =  5.44370e+00
    degauss     =  1.00000e-02
    ecutrho     =  1.00000e+02
    ecutwfc     =  2.50000e+01
    ibrav       = 1
    nat         = 8
    nbnd        = 32
    ntyp        = 1
    occupations = "smearing"
    smearing    = "gaussian"
/

&ELECTRONS
    conv_thr         =  1.00000e-06
    electron_maxstep = 200
    mixing_beta      =  7.00000e-01
    startingpot      = "atomic"
    startingwfc      = "atomic+random"
/

&DOS
    degauss =  1.00000e-02
    deltae  =  1.00000e-02
    emax    =  5.00000e+01
    emin    = -5.00000e+01
    ngauss  = 0
/

&PROJWFC
    degauss =  1.00000e-02
    deltae  =  1.00000e-02
    emax    =  5.00000e+01
    emin    = -5.00000e+01
    ngauss  = 0
/

K_POINTS {automatic}
 4  4  4  0 0 0

ATOMIC_SPECIES
Si0+   28.08550  Si.pbe-rrkj.UPF

ATOMIC_POSITIONS {angstrom}
Si0+    4.082777   4.082777   1.360926
Si0+    0.000000   2.721851   2.721851
Si0+    4.082777   1.360926   4.082777
Si0+    0.000000   0.000000   0.000000
Si0+    1.360926   4.082777   4.082777
Si0+    2.721851   2.721851   0.000000
Si0+    1.360926   1.360926   1.360926
Si0+    2.721851   0.000000   2.721851
