&CONTROL
    calculation = "nscf"
    max_seconds =  8.64000e+04
    pseudo_dir  = "C:\Users\agnaa\.burai\.pseudopot"
/

&SYSTEM
    a           =  3.07662e+00
    c           =  1.50981e+01
    degauss     =  1.00000e-02
    ecutrho     =  2.25000e+02
    ecutwfc     =  2.50000e+01
    ibrav       = 4
    nat         = 12
    nbnd        = 48
    ntyp        = 2
    occupations = "smearing"
    smearing    = "gaussian"
/

&ELECTRONS
    conv_thr         =  1.00000e-06
    electron_maxstep = 200
    mixing_beta      =  7.00000e-01
    startingpot      = "atomic"
    startingwfc      = "atomic+random"
/

&DOS
    degauss =  1.00000e-02
    deltae  =  1.00000e-02
    emax    =  5.00000e+01
    emin    = -5.00000e+01
    ngauss  = 0
/

&PROJWFC
    degauss =  1.00000e-02
    deltae  =  1.00000e-02
    emax    =  5.00000e+01
    emin    = -5.00000e+01
    ngauss  = 0
/

K_POINTS {automatic}
 9  9  2  0 0 0

ATOMIC_SPECIES
Si4+   28.08550  Si.pbe-rrkj.UPF
C4-    12.01070  C.pbe-rrkjus.UPF

ATOMIC_POSITIONS {angstrom}
Si4+   -0.000000   1.776288  12.576495
Si4+    1.538311   0.888144   5.027453
Si4+    1.538311   0.888144  10.062882
Si4+   -0.000000   1.776288   2.513840
Si4+    0.000000   0.000000   7.544957
Si4+    0.000000   0.000000  15.093999
C4-     0.000000   0.000000  13.201258
C4-     0.000000   0.000000   5.652216
C4-    -0.000000   1.776288  10.689395
C4-     1.538311   0.888144   3.140353
C4-     1.538311   0.888144   8.175939
C4-    -0.000000   1.776288   0.626897

